p edge 2356 2266
e 1 2
e 1 3
e 1 4
e 1 5
e 1 6
e 1 7
e 1 8
e 1 9
e 1 10
e 1 11
e 1 12
e 1 13
e 1 14
e 1 15
e 1 16
e 1 17
e 1 18
e 1 19
e 1 20
e 1 21
e 1 22
e 1 23
e 1 24
e 1 25
e 1 26
e 1 27
e 1 28
e 1 29
e 1 30
e 1 31
e 1 32
e 1 33
e 1 34
e 1 35
e 1 36
e 1 37
e 1 38
e 1 39
e 40 41
e 40 42
e 40 43
e 40 44
e 40 45
e 40 46
e 40 47
e 40 48
e 40 49
e 40 50
e 40 51
e 40 52
e 40 53
e 40 54
e 40 55
e 40 56
e 40 57
e 40 58
e 40 59
e 40 60
e 40 61
e 62 63
e 62 64
e 62 65
e 62 66
e 62 67
e 62 68
e 62 69
e 62 70
e 62 71
e 62 72
e 62 73
e 62 74
e 62 75
e 62 76
e 62 77
e 78 79
e 78 80
e 78 81
e 78 82
e 78 83
e 78 84
e 78 85
e 78 86
e 78 87
e 78 88
e 78 89
e 78 90
e 78 91
e 78 92
e 78 93
e 78 94
e 78 95
e 96 97
e 96 98
e 96 99
e 96 100
e 96 101
e 96 102
e 96 103
e 96 104
e 96 105
e 96 106
e 96 107
e 96 108
e 96 109
e 96 110
e 96 111
e 96 112
e 96 113
e 96 114
e 96 115
e 96 116
e 96 117
e 96 118
e 96 119
e 96 120
e 96 121
e 96 122
e 96 123
e 96 124
e 125 126
e 125 127
e 125 128
e 125 129
e 125 130
e 125 131
e 125 132
e 125 133
e 125 134
e 125 135
e 125 136
e 125 137
e 125 138
e 125 139
e 125 140
e 125 141
e 125 142
e 125 143
e 125 144
e 125 145
e 125 146
e 125 147
e 125 148
e 125 149
e 125 150
e 125 151
e 125 152
e 125 153
e 125 154
e 125 155
e 125 156
e 125 157
e 125 158
e 125 159
e 125 160
e 161 162
e 161 163
e 161 164
e 161 165
e 161 166
e 161 167
e 161 168
e 161 169
e 161 170
e 161 171
e 161 172
e 161 173
e 161 174
e 161 175
e 161 176
e 161 177
e 161 178
e 161 179
e 161 180
e 161 181
e 161 182
e 161 183
e 161 184
e 161 185
e 161 186
e 161 187
e 161 188
e 161 189
e 161 190
e 161 191
e 161 192
e 161 193
e 161 194
e 161 195
e 161 196
e 161 197
e 161 198
e 161 199
e 200 201
e 200 202
e 200 203
e 200 204
e 200 205
e 200 206
e 200 207
e 200 208
e 200 209
e 200 210
e 200 211
e 200 212
e 200 213
e 200 214
e 200 215
e 200 216
e 200 217
e 200 218
e 200 219
e 200 220
e 200 221
e 200 222
e 200 223
e 200 224
e 200 225
e 200 226
e 200 227
e 200 228
e 200 229
e 200 230
e 200 231
e 200 232
e 200 233
e 200 234
e 200 235
e 200 236
e 200 237
e 200 238
e 239 240
e 239 241
e 239 242
e 239 243
e 239 244
e 239 245
e 239 246
e 239 247
e 239 248
e 239 249
e 239 250
e 239 251
e 239 252
e 239 253
e 239 254
e 239 255
e 239 256
e 239 257
e 239 258
e 239 259
e 239 260
e 239 261
e 262 263
e 262 264
e 262 265
e 262 266
e 262 267
e 262 268
e 262 269
e 262 270
e 262 271
e 262 272
e 262 273
e 262 274
e 262 275
e 262 276
e 262 277
e 262 278
e 262 279
e 262 280
e 262 281
e 262 282
e 262 283
e 262 284
e 262 285
e 262 286
e 262 287
e 262 288
e 262 289
e 262 290
e 291 292
e 291 293
e 291 294
e 291 295
e 291 296
e 291 297
e 291 298
e 291 299
e 291 300
e 291 301
e 291 302
e 291 303
e 291 304
e 291 305
e 291 306
e 291 307
e 291 308
e 291 309
e 291 310
e 291 311
e 291 312
e 291 313
e 291 314
e 291 315
e 291 316
e 291 317
e 291 318
e 319 320
e 319 321
e 319 322
e 319 323
e 319 324
e 319 325
e 319 326
e 319 327
e 319 328
e 319 329
e 319 330
e 319 331
e 319 332
e 319 333
e 319 334
e 319 335
e 319 336
e 319 337
e 319 338
e 319 339
e 319 340
e 319 341
e 319 342
e 319 343
e 319 344
e 345 346
e 345 347
e 345 348
e 345 349
e 345 350
e 345 351
e 345 352
e 345 353
e 345 354
e 345 355
e 345 356
e 345 357
e 345 358
e 345 359
e 345 360
e 345 361
e 345 362
e 363 364
e 363 365
e 363 366
e 363 367
e 363 368
e 363 369
e 363 370
e 363 371
e 363 372
e 363 373
e 363 374
e 363 375
e 363 376
e 363 377
e 363 378
e 363 379
e 363 380
e 363 381
e 363 382
e 363 383
e 384 385
e 384 386
e 384 387
e 384 388
e 384 389
e 384 390
e 384 391
e 384 392
e 384 393
e 384 394
e 384 395
e 384 396
e 384 397
e 384 398
e 384 399
e 384 400
e 384 401
e 384 402
e 384 403
e 384 404
e 384 405
e 384 406
e 384 407
e 384 408
e 384 409
e 384 410
e 384 411
e 384 412
e 384 413
e 384 414
e 384 415
e 384 416
e 384 417
e 384 418
e 384 419
e 384 420
e 384 421
e 384 422
e 423 424
e 423 425
e 423 426
e 423 427
e 423 428
e 423 429
e 423 430
e 423 431
e 423 432
e 423 433
e 423 434
e 423 435
e 423 436
e 423 437
e 423 438
e 423 439
e 423 440
e 423 441
e 423 442
e 423 443
e 423 444
e 423 445
e 423 446
e 423 447
e 423 448
e 423 449
e 423 450
e 423 451
e 423 452
e 423 453
e 423 454
e 423 455
e 456 457
e 456 458
e 456 459
e 456 460
e 456 461
e 456 462
e 456 463
e 456 464
e 456 465
e 456 466
e 456 467
e 456 468
e 456 469
e 456 470
e 456 471
e 456 472
e 456 473
e 456 474
e 456 475
e 456 476
e 456 477
e 456 478
e 456 479
e 456 480
e 456 481
e 456 482
e 456 483
e 456 484
e 456 485
e 456 486
e 456 487
e 456 488
e 456 489
e 456 490
e 456 491
e 456 492
e 456 493
e 494 495
e 494 496
e 494 497
e 494 498
e 494 499
e 494 500
e 494 501
e 494 502
e 494 503
e 494 504
e 494 505
e 494 506
e 494 507
e 494 508
e 494 509
e 494 510
e 494 511
e 494 512
e 494 513
e 494 514
e 494 515
e 494 516
e 494 517
e 518 519
e 518 520
e 518 521
e 518 522
e 518 523
e 518 524
e 518 525
e 518 526
e 518 527
e 518 528
e 518 529
e 518 530
e 518 531
e 518 532
e 518 533
e 518 534
e 518 535
e 536 537
e 536 538
e 536 539
e 536 540
e 536 541
e 536 542
e 536 543
e 536 544
e 536 545
e 536 546
e 536 547
e 536 548
e 536 549
e 536 550
e 536 551
e 552 553
e 552 554
e 552 555
e 552 556
e 552 557
e 552 558
e 552 559
e 552 560
e 552 561
e 552 562
e 552 563
e 552 564
e 552 565
e 552 566
e 552 567
e 552 568
e 552 569
e 552 570
e 552 571
e 552 572
e 552 573
e 552 574
e 552 575
e 552 576
e 552 577
e 552 578
e 552 579
e 552 580
e 552 581
e 552 582
e 552 583
e 552 584
e 552 585
e 552 586
e 587 588
e 587 589
e 587 590
e 587 591
e 587 592
e 587 593
e 587 594
e 587 595
e 587 596
e 587 597
e 587 598
e 599 600
e 599 601
e 599 602
e 599 603
e 599 604
e 599 605
e 599 606
e 599 607
e 599 608
e 599 609
e 599 610
e 599 611
e 599 612
e 599 613
e 599 614
e 599 615
e 599 616
e 599 617
e 599 618
e 599 619
e 599 620
e 621 622
e 621 623
e 621 624
e 621 625
e 621 626
e 621 627
e 621 628
e 621 629
e 621 630
e 621 631
e 621 632
e 621 633
e 621 634
e 621 635
e 621 636
e 621 637
e 621 638
e 621 639
e 621 640
e 621 641
e 621 642
e 621 643
e 644 645
e 644 646
e 644 647
e 644 648
e 644 649
e 644 650
e 644 651
e 644 652
e 644 653
e 644 654
e 644 655
e 644 656
e 644 657
e 658 659
e 658 660
e 658 661
e 658 662
e 658 663
e 658 664
e 658 665
e 658 666
e 658 667
e 658 668
e 658 669
e 658 670
e 658 671
e 658 672
e 673 674
e 673 675
e 673 676
e 673 677
e 673 678
e 673 679
e 673 680
e 673 681
e 673 682
e 673 683
e 673 684
e 673 685
e 673 686
e 673 687
e 673 688
e 673 689
e 673 690
e 673 691
e 673 692
e 673 693
e 673 694
e 673 695
e 673 696
e 673 697
e 673 698
e 673 699
e 673 700
e 673 701
e 702 703
e 702 704
e 702 705
e 702 706
e 702 707
e 702 708
e 702 709
e 702 710
e 702 711
e 702 712
e 702 713
e 702 714
e 702 715
e 702 716
e 702 717
e 702 718
e 719 720
e 719 721
e 719 722
e 719 723
e 719 724
e 719 725
e 719 726
e 719 727
e 719 728
e 719 729
e 719 730
e 719 731
e 719 732
e 719 733
e 719 734
e 719 735
e 719 736
e 719 737
e 719 738
e 719 739
e 719 740
e 719 741
e 719 742
e 743 744
e 743 745
e 743 746
e 743 747
e 743 748
e 743 749
e 743 750
e 743 751
e 743 752
e 743 753
e 743 754
e 743 755
e 743 756
e 743 757
e 743 758
e 743 759
e 743 760
e 743 761
e 743 762
e 743 763
e 743 764
e 743 765
e 743 766
e 743 767
e 743 768
e 769 770
e 769 771
e 769 772
e 769 773
e 769 774
e 769 775
e 769 776
e 769 777
e 769 778
e 769 779
e 769 780
e 769 781
e 769 782
e 769 783
e 784 785
e 784 786
e 784 787
e 784 788
e 784 789
e 784 790
e 784 791
e 784 792
e 784 793
e 784 794
e 784 795
e 784 796
e 784 797
e 784 798
e 784 799
e 784 800
e 784 801
e 784 802
e 784 803
e 784 804
e 784 805
e 784 806
e 784 807
e 784 808
e 784 809
e 784 810
e 784 811
e 784 812
e 784 813
e 784 814
e 784 815
e 816 817
e 816 818
e 816 819
e 816 820
e 816 821
e 816 822
e 816 823
e 816 824
e 816 825
e 816 826
e 827 828
e 827 829
e 827 830
e 827 831
e 827 832
e 827 833
e 827 834
e 827 835
e 827 836
e 827 837
e 827 838
e 827 839
e 827 840
e 827 841
e 827 842
e 827 843
e 827 844
e 827 845
e 827 846
e 827 847
e 827 848
e 827 849
e 827 850
e 827 851
e 827 852
e 827 853
e 827 854
e 827 855
e 827 856
e 827 857
e 827 858
e 827 859
e 860 861
e 860 862
e 860 863
e 860 864
e 860 865
e 860 866
e 860 867
e 860 868
e 860 869
e 860 870
e 860 871
e 860 872
e 860 873
e 860 874
e 860 875
e 860 876
e 860 877
e 860 878
e 860 879
e 860 880
e 860 881
e 860 882
e 860 883
e 860 884
e 860 885
e 860 886
e 887 888
e 887 889
e 887 890
e 887 891
e 887 892
e 887 893
e 887 894
e 887 895
e 887 896
e 887 897
e 887 898
e 887 899
e 887 900
e 887 901
e 887 902
e 887 903
e 887 904
e 905 906
e 905 907
e 905 908
e 905 909
e 905 910
e 905 911
e 905 912
e 905 913
e 905 914
e 905 915
e 905 916
e 905 917
e 905 918
e 905 919
e 905 920
e 905 921
e 905 922
e 905 923
e 924 925
e 924 926
e 924 927
e 924 928
e 924 929
e 924 930
e 924 931
e 924 932
e 924 933
e 924 934
e 924 935
e 924 936
e 924 937
e 924 938
e 924 939
e 924 940
e 924 941
e 942 943
e 942 944
e 942 945
e 942 946
e 942 947
e 942 948
e 942 949
e 942 950
e 942 951
e 942 952
e 942 953
e 942 954
e 942 955
e 942 956
e 942 957
e 942 958
e 942 959
e 942 960
e 942 961
e 962 963
e 962 964
e 962 965
e 962 966
e 962 967
e 962 968
e 962 969
e 962 970
e 962 971
e 962 972
e 962 973
e 962 974
e 962 975
e 962 976
e 962 977
e 962 978
e 962 979
e 962 980
e 962 981
e 962 982
e 962 983
e 962 984
e 962 985
e 962 986
e 962 987
e 962 988
e 962 989
e 962 990
e 962 991
e 962 992
e 962 993
e 962 994
e 962 995
e 996 997
e 996 998
e 996 999
e 996 1000
e 996 1001
e 996 1002
e 996 1003
e 996 1004
e 996 1005
e 996 1006
e 996 1007
e 996 1008
e 996 1009
e 996 1010
e 996 1011
e 996 1012
e 996 1013
e 996 1014
e 996 1015
e 996 1016
e 996 1017
e 996 1018
e 996 1019
e 996 1020
e 996 1021
e 996 1022
e 996 1023
e 996 1024
e 996 1025
e 996 1026
e 996 1027
e 996 1028
e 996 1029
e 996 1030
e 996 1031
e 1032 1033
e 1032 1034
e 1032 1035
e 1032 1036
e 1032 1037
e 1032 1038
e 1032 1039
e 1032 1040
e 1032 1041
e 1032 1042
e 1032 1043
e 1044 1045
e 1044 1046
e 1044 1047
e 1044 1048
e 1044 1049
e 1044 1050
e 1044 1051
e 1044 1052
e 1044 1053
e 1044 1054
e 1044 1055
e 1044 1056
e 1044 1057
e 1044 1058
e 1044 1059
e 1044 1060
e 1044 1061
e 1044 1062
e 1044 1063
e 1044 1064
e 1044 1065
e 1044 1066
e 1044 1067
e 1044 1068
e 1044 1069
e 1044 1070
e 1044 1071
e 1044 1072
e 1044 1073
e 1044 1074
e 1044 1075
e 1044 1076
e 1077 1078
e 1077 1079
e 1077 1080
e 1077 1081
e 1077 1082
e 1077 1083
e 1077 1084
e 1077 1085
e 1077 1086
e 1077 1087
e 1077 1088
e 1077 1089
e 1077 1090
e 1077 1091
e 1077 1092
e 1077 1093
e 1077 1094
e 1077 1095
e 1077 1096
e 1097 1098
e 1097 1099
e 1097 1100
e 1097 1101
e 1097 1102
e 1097 1103
e 1097 1104
e 1097 1105
e 1097 1106
e 1097 1107
e 1097 1108
e 1097 1109
e 1097 1110
e 1097 1111
e 1097 1112
e 1097 1113
e 1114 1115
e 1114 1116
e 1114 1117
e 1114 1118
e 1114 1119
e 1114 1120
e 1114 1121
e 1114 1122
e 1114 1123
e 1114 1124
e 1114 1125
e 1114 1126
e 1114 1127
e 1114 1128
e 1114 1129
e 1114 1130
e 1114 1131
e 1114 1132
e 1133 1134
e 1133 1135
e 1133 1136
e 1133 1137
e 1133 1138
e 1133 1139
e 1133 1140
e 1133 1141
e 1133 1142
e 1133 1143
e 1133 1144
e 1133 1145
e 1133 1146
e 1133 1147
e 1133 1148
e 1133 1149
e 1133 1150
e 1133 1151
e 1133 1152
e 1133 1153
e 1133 1154
e 1133 1155
e 1133 1156
e 1133 1157
e 1133 1158
e 1133 1159
e 1133 1160
e 1133 1161
e 1133 1162
e 1133 1163
e 1133 1164
e 1133 1165
e 1133 1166
e 1167 1168
e 1167 1169
e 1167 1170
e 1167 1171
e 1167 1172
e 1167 1173
e 1167 1174
e 1167 1175
e 1167 1176
e 1167 1177
e 1167 1178
e 1179 1180
e 1179 1181
e 1179 1182
e 1179 1183
e 1179 1184
e 1179 1185
e 1179 1186
e 1179 1187
e 1179 1188
e 1179 1189
e 1179 1190
e 1179 1191
e 1179 1192
e 1179 1193
e 1179 1194
e 1179 1195
e 1179 1196
e 1179 1197
e 1179 1198
e 1179 1199
e 1179 1200
e 1179 1201
e 1179 1202
e 1179 1203
e 1179 1204
e 1179 1205
e 1179 1206
e 1179 1207
e 1179 1208
e 1179 1209
e 1179 1210
e 1179 1211
e 1179 1212
e 1179 1213
e 1179 1214
e 1179 1215
e 1179 1216
e 1179 1217
e 1179 1218
e 1179 1219
e 1220 1221
e 1220 1222
e 1220 1223
e 1220 1224
e 1220 1225
e 1220 1226
e 1220 1227
e 1220 1228
e 1220 1229
e 1220 1230
e 1220 1231
e 1220 1232
e 1220 1233
e 1220 1234
e 1220 1235
e 1220 1236
e 1220 1237
e 1220 1238
e 1220 1239
e 1220 1240
e 1220 1241
e 1220 1242
e 1220 1243
e 1220 1244
e 1220 1245
e 1220 1246
e 1220 1247
e 1220 1248
e 1220 1249
e 1220 1250
e 1251 1252
e 1251 1253
e 1251 1254
e 1251 1255
e 1251 1256
e 1251 1257
e 1251 1258
e 1251 1259
e 1251 1260
e 1251 1261
e 1251 1262
e 1251 1263
e 1251 1264
e 1251 1265
e 1251 1266
e 1251 1267
e 1251 1268
e 1251 1269
e 1251 1270
e 1251 1271
e 1251 1272
e 1251 1273
e 1251 1274
e 1251 1275
e 1251 1276
e 1251 1277
e 1251 1278
e 1251 1279
e 1251 1280
e 1251 1281
e 1251 1282
e 1251 1283
e 1251 1284
e 1251 1285
e 1251 1286
e 1251 1287
e 1251 1288
e 1251 1289
e 1251 1290
e 1251 1291
e 1292 1293
e 1292 1294
e 1292 1295
e 1292 1296
e 1292 1297
e 1292 1298
e 1292 1299
e 1292 1300
e 1292 1301
e 1292 1302
e 1292 1303
e 1292 1304
e 1292 1305
e 1292 1306
e 1292 1307
e 1292 1308
e 1292 1309
e 1292 1310
e 1292 1311
e 1292 1312
e 1292 1313
e 1292 1314
e 1292 1315
e 1292 1316
e 1292 1317
e 1292 1318
e 1292 1319
e 1292 1320
e 1292 1321
e 1322 1323
e 1322 1324
e 1322 1325
e 1322 1326
e 1322 1327
e 1322 1328
e 1322 1329
e 1322 1330
e 1322 1331
e 1322 1332
e 1322 1333
e 1322 1334
e 1322 1335
e 1322 1336
e 1322 1337
e 1322 1338
e 1322 1339
e 1322 1340
e 1341 1342
e 1341 1343
e 1341 1344
e 1341 1345
e 1341 1346
e 1341 1347
e 1341 1348
e 1341 1349
e 1341 1350
e 1341 1351
e 1341 1352
e 1341 1353
e 1341 1354
e 1341 1355
e 1341 1356
e 1341 1357
e 1341 1358
e 1341 1359
e 1341 1360
e 1341 1361
e 1341 1362
e 1341 1363
e 1341 1364
e 1341 1365
e 1341 1366
e 1341 1367
e 1341 1368
e 1341 1369
e 1341 1370
e 1341 1371
e 1341 1372
e 1341 1373
e 1341 1374
e 1341 1375
e 1341 1376
e 1377 1378
e 1377 1379
e 1377 1380
e 1377 1381
e 1377 1382
e 1377 1383
e 1377 1384
e 1377 1385
e 1377 1386
e 1377 1387
e 1377 1388
e 1377 1389
e 1377 1390
e 1377 1391
e 1377 1392
e 1377 1393
e 1377 1394
e 1377 1395
e 1377 1396
e 1377 1397
e 1377 1398
e 1377 1399
e 1377 1400
e 1377 1401
e 1377 1402
e 1377 1403
e 1377 1404
e 1377 1405
e 1377 1406
e 1377 1407
e 1377 1408
e 1377 1409
e 1377 1410
e 1377 1411
e 1377 1412
e 1377 1413
e 1377 1414
e 1377 1415
e 1377 1416
e 1377 1417
e 1418 1419
e 1418 1420
e 1418 1421
e 1418 1422
e 1418 1423
e 1418 1424
e 1418 1425
e 1418 1426
e 1418 1427
e 1418 1428
e 1418 1429
e 1418 1430
e 1418 1431
e 1418 1432
e 1418 1433
e 1418 1434
e 1418 1435
e 1418 1436
e 1418 1437
e 1418 1438
e 1418 1439
e 1418 1440
e 1418 1441
e 1442 1443
e 1442 1444
e 1442 1445
e 1442 1446
e 1442 1447
e 1442 1448
e 1442 1449
e 1442 1450
e 1442 1451
e 1442 1452
e 1442 1453
e 1442 1454
e 1442 1455
e 1442 1456
e 1442 1457
e 1442 1458
e 1442 1459
e 1442 1460
e 1442 1461
e 1442 1462
e 1442 1463
e 1442 1464
e 1442 1465
e 1442 1466
e 1442 1467
e 1442 1468
e 1442 1469
e 1442 1470
e 1442 1471
e 1442 1472
e 1442 1473
e 1442 1474
e 1442 1475
e 1476 1477
e 1476 1478
e 1476 1479
e 1476 1480
e 1476 1481
e 1476 1482
e 1476 1483
e 1476 1484
e 1476 1485
e 1476 1486
e 1476 1487
e 1476 1488
e 1476 1489
e 1476 1490
e 1476 1491
e 1476 1492
e 1476 1493
e 1476 1494
e 1476 1495
e 1476 1496
e 1476 1497
e 1476 1498
e 1476 1499
e 1476 1500
e 1501 1502
e 1501 1503
e 1501 1504
e 1501 1505
e 1501 1506
e 1501 1507
e 1501 1508
e 1501 1509
e 1501 1510
e 1501 1511
e 1501 1512
e 1501 1513
e 1501 1514
e 1501 1515
e 1501 1516
e 1501 1517
e 1501 1518
e 1501 1519
e 1501 1520
e 1501 1521
e 1501 1522
e 1501 1523
e 1501 1524
e 1501 1525
e 1501 1526
e 1501 1527
e 1501 1528
e 1501 1529
e 1501 1530
e 1531 1532
e 1531 1533
e 1531 1534
e 1531 1535
e 1531 1536
e 1531 1537
e 1531 1538
e 1531 1539
e 1531 1540
e 1531 1541
e 1531 1542
e 1531 1543
e 1531 1544
e 1531 1545
e 1531 1546
e 1531 1547
e 1531 1548
e 1531 1549
e 1531 1550
e 1531 1551
e 1531 1552
e 1531 1553
e 1531 1554
e 1531 1555
e 1531 1556
e 1557 1558
e 1557 1559
e 1557 1560
e 1557 1561
e 1557 1562
e 1557 1563
e 1557 1564
e 1557 1565
e 1557 1566
e 1557 1567
e 1557 1568
e 1557 1569
e 1557 1570
e 1557 1571
e 1557 1572
e 1557 1573
e 1557 1574
e 1557 1575
e 1557 1576
e 1557 1577
e 1557 1578
e 1557 1579
e 1557 1580
e 1557 1581
e 1557 1582
e 1557 1583
e 1557 1584
e 1557 1585
e 1557 1586
e 1557 1587
e 1557 1588
e 1557 1589
e 1557 1590
e 1557 1591
e 1557 1592
e 1557 1593
e 1557 1594
e 1557 1595
e 1557 1596
e 1597 1598
e 1597 1599
e 1597 1600
e 1597 1601
e 1597 1602
e 1597 1603
e 1597 1604
e 1597 1605
e 1597 1606
e 1597 1607
e 1597 1608
e 1609 1610
e 1609 1611
e 1609 1612
e 1609 1613
e 1609 1614
e 1609 1615
e 1609 1616
e 1609 1617
e 1609 1618
e 1609 1619
e 1609 1620
e 1609 1621
e 1609 1622
e 1609 1623
e 1624 1625
e 1624 1626
e 1624 1627
e 1624 1628
e 1624 1629
e 1624 1630
e 1624 1631
e 1624 1632
e 1624 1633
e 1624 1634
e 1624 1635
e 1624 1636
e 1637 1638
e 1637 1639
e 1637 1640
e 1637 1641
e 1637 1642
e 1637 1643
e 1637 1644
e 1637 1645
e 1637 1646
e 1637 1647
e 1637 1648
e 1637 1649
e 1637 1650
e 1637 1651
e 1637 1652
e 1637 1653
e 1637 1654
e 1637 1655
e 1637 1656
e 1657 1658
e 1657 1659
e 1657 1660
e 1657 1661
e 1657 1662
e 1657 1663
e 1657 1664
e 1657 1665
e 1657 1666
e 1657 1667
e 1657 1668
e 1657 1669
e 1657 1670
e 1657 1671
e 1657 1672
e 1657 1673
e 1657 1674
e 1657 1675
e 1657 1676
e 1657 1677
e 1657 1678
e 1657 1679
e 1657 1680
e 1657 1681
e 1657 1682
e 1657 1683
e 1657 1684
e 1657 1685
e 1657 1686
e 1657 1687
e 1657 1688
e 1657 1689
e 1657 1690
e 1657 1691
e 1657 1692
e 1657 1693
e 1657 1694
e 1657 1695
e 1696 1697
e 1696 1698
e 1696 1699
e 1696 1700
e 1696 1701
e 1696 1702
e 1696 1703
e 1696 1704
e 1696 1705
e 1696 1706
e 1696 1707
e 1696 1708
e 1696 1709
e 1696 1710
e 1696 1711
e 1696 1712
e 1696 1713
e 1696 1714
e 1696 1715
e 1696 1716
e 1696 1717
e 1696 1718
e 1696 1719
e 1696 1720
e 1696 1721
e 1696 1722
e 1696 1723
e 1696 1724
e 1696 1725
e 1726 1727
e 1726 1728
e 1726 1729
e 1726 1730
e 1726 1731
e 1726 1732
e 1726 1733
e 1726 1734
e 1726 1735
e 1726 1736
e 1726 1737
e 1726 1738
e 1726 1739
e 1726 1740
e 1726 1741
e 1726 1742
e 1726 1743
e 1726 1744
e 1726 1745
e 1726 1746
e 1726 1747
e 1726 1748
e 1726 1749
e 1726 1750
e 1726 1751
e 1726 1752
e 1726 1753
e 1726 1754
e 1726 1755
e 1726 1756
e 1726 1757
e 1726 1758
e 1726 1759
e 1726 1760
e 1726 1761
e 1762 1763
e 1762 1764
e 1762 1765
e 1762 1766
e 1762 1767
e 1762 1768
e 1762 1769
e 1762 1770
e 1762 1771
e 1762 1772
e 1762 1773
e 1762 1774
e 1762 1775
e 1762 1776
e 1762 1777
e 1762 1778
e 1762 1779
e 1762 1780
e 1762 1781
e 1762 1782
e 1762 1783
e 1762 1784
e 1762 1785
e 1762 1786
e 1762 1787
e 1762 1788
e 1789 1790
e 1789 1791
e 1789 1792
e 1789 1793
e 1789 1794
e 1789 1795
e 1789 1796
e 1789 1797
e 1789 1798
e 1789 1799
e 1789 1800
e 1789 1801
e 1789 1802
e 1789 1803
e 1789 1804
e 1789 1805
e 1789 1806
e 1789 1807
e 1789 1808
e 1789 1809
e 1789 1810
e 1789 1811
e 1789 1812
e 1789 1813
e 1789 1814
e 1789 1815
e 1789 1816
e 1817 1818
e 1817 1819
e 1817 1820
e 1817 1821
e 1817 1822
e 1817 1823
e 1817 1824
e 1817 1825
e 1817 1826
e 1817 1827
e 1817 1828
e 1817 1829
e 1817 1830
e 1817 1831
e 1817 1832
e 1817 1833
e 1817 1834
e 1817 1835
e 1817 1836
e 1817 1837
e 1817 1838
e 1817 1839
e 1817 1840
e 1817 1841
e 1817 1842
e 1817 1843
e 1817 1844
e 1817 1845
e 1817 1846
e 1817 1847
e 1817 1848
e 1817 1849
e 1817 1850
e 1851 1852
e 1851 1853
e 1851 1854
e 1851 1855
e 1851 1856
e 1851 1857
e 1851 1858
e 1851 1859
e 1851 1860
e 1851 1861
e 1851 1862
e 1851 1863
e 1864 1865
e 1864 1866
e 1864 1867
e 1864 1868
e 1864 1869
e 1864 1870
e 1864 1871
e 1864 1872
e 1864 1873
e 1864 1874
e 1864 1875
e 1864 1876
e 1877 1878
e 1877 1879
e 1877 1880
e 1877 1881
e 1877 1882
e 1877 1883
e 1877 1884
e 1877 1885
e 1877 1886
e 1877 1887
e 1877 1888
e 1877 1889
e 1877 1890
e 1877 1891
e 1877 1892
e 1877 1893
e 1877 1894
e 1877 1895
e 1877 1896
e 1877 1897
e 1877 1898
e 1899 1900
e 1899 1901
e 1899 1902
e 1899 1903
e 1899 1904
e 1899 1905
e 1899 1906
e 1899 1907
e 1899 1908
e 1899 1909
e 1910 1911
e 1910 1912
e 1910 1913
e 1910 1914
e 1910 1915
e 1910 1916
e 1910 1917
e 1910 1918
e 1910 1919
e 1910 1920
e 1910 1921
e 1910 1922
e 1910 1923
e 1910 1924
e 1910 1925
e 1910 1926
e 1910 1927
e 1910 1928
e 1910 1929
e 1910 1930
e 1910 1931
e 1910 1932
e 1910 1933
e 1910 1934
e 1910 1935
e 1910 1936
e 1910 1937
e 1910 1938
e 1910 1939
e 1910 1940
e 1910 1941
e 1910 1942
e 1910 1943
e 1910 1944
e 1910 1945
e 1910 1946
e 1910 1947
e 1910 1948
e 1910 1949
e 1950 1951
e 1950 1952
e 1950 1953
e 1950 1954
e 1950 1955
e 1950 1956
e 1950 1957
e 1950 1958
e 1950 1959
e 1950 1960
e 1950 1961
e 1950 1962
e 1950 1963
e 1950 1964
e 1950 1965
e 1950 1966
e 1950 1967
e 1950 1968
e 1950 1969
e 1950 1970
e 1950 1971
e 1950 1972
e 1950 1973
e 1950 1974
e 1950 1975
e 1950 1976
e 1950 1977
e 1950 1978
e 1950 1979
e 1950 1980
e 1981 1982
e 1981 1983
e 1981 1984
e 1981 1985
e 1981 1986
e 1981 1987
e 1981 1988
e 1981 1989
e 1981 1990
e 1981 1991
e 1981 1992
e 1981 1993
e 1981 1994
e 1981 1995
e 1981 1996
e 1981 1997
e 1981 1998
e 1999 2000
e 1999 2001
e 1999 2002
e 1999 2003
e 1999 2004
e 1999 2005
e 1999 2006
e 1999 2007
e 1999 2008
e 1999 2009
e 1999 2010
e 1999 2011
e 1999 2012
e 1999 2013
e 1999 2014
e 1999 2015
e 1999 2016
e 1999 2017
e 1999 2018
e 1999 2019
e 1999 2020
e 1999 2021
e 1999 2022
e 1999 2023
e 1999 2024
e 1999 2025
e 1999 2026
e 1999 2027
e 1999 2028
e 1999 2029
e 2030 2031
e 2030 2032
e 2030 2033
e 2030 2034
e 2030 2035
e 2030 2036
e 2030 2037
e 2030 2038
e 2030 2039
e 2030 2040
e 2041 2042
e 2041 2043
e 2041 2044
e 2041 2045
e 2041 2046
e 2041 2047
e 2041 2048
e 2041 2049
e 2041 2050
e 2041 2051
e 2041 2052
e 2041 2053
e 2041 2054
e 2041 2055
e 2041 2056
e 2041 2057
e 2041 2058
e 2041 2059
e 2041 2060
e 2041 2061
e 2041 2062
e 2041 2063
e 2041 2064
e 2041 2065
e 2041 2066
e 2041 2067
e 2041 2068
e 2041 2069
e 2041 2070
e 2041 2071
e 2041 2072
e 2041 2073
e 2041 2074
e 2041 2075
e 2041 2076
e 2041 2077
e 2041 2078
e 2079 2080
e 2079 2081
e 2079 2082
e 2079 2083
e 2079 2084
e 2079 2085
e 2079 2086
e 2079 2087
e 2079 2088
e 2079 2089
e 2079 2090
e 2079 2091
e 2079 2092
e 2079 2093
e 2079 2094
e 2079 2095
e 2079 2096
e 2079 2097
e 2079 2098
e 2079 2099
e 2079 2100
e 2079 2101
e 2079 2102
e 2079 2103
e 2079 2104
e 2079 2105
e 2079 2106
e 2079 2107
e 2079 2108
e 2079 2109
e 2079 2110
e 2079 2111
e 2079 2112
e 2079 2113
e 2079 2114
e 2079 2115
e 2079 2116
e 2079 2117
e 2079 2118
e 2119 2120
e 2119 2121
e 2119 2122
e 2119 2123
e 2119 2124
e 2119 2125
e 2119 2126
e 2119 2127
e 2119 2128
e 2119 2129
e 2119 2130
e 2119 2131
e 2119 2132
e 2119 2133
e 2119 2134
e 2119 2135
e 2119 2136
e 2119 2137
e 2119 2138
e 2119 2139
e 2119 2140
e 2119 2141
e 2119 2142
e 2119 2143
e 2119 2144
e 2119 2145
e 2119 2146
e 2119 2147
e 2119 2148
e 2119 2149
e 2119 2150
e 2119 2151
e 2119 2152
e 2119 2153
e 2119 2154
e 2119 2155
e 2156 2157
e 2156 2158
e 2156 2159
e 2156 2160
e 2156 2161
e 2156 2162
e 2156 2163
e 2156 2164
e 2156 2165
e 2156 2166
e 2156 2167
e 2156 2168
e 2156 2169
e 2156 2170
e 2156 2171
e 2156 2172
e 2156 2173
e 2156 2174
e 2156 2175
e 2156 2176
e 2156 2177
e 2156 2178
e 2156 2179
e 2156 2180
e 2156 2181
e 2156 2182
e 2156 2183
e 2184 2185
e 2184 2186
e 2184 2187
e 2184 2188
e 2184 2189
e 2184 2190
e 2184 2191
e 2184 2192
e 2184 2193
e 2184 2194
e 2184 2195
e 2184 2196
e 2184 2197
e 2184 2198
e 2184 2199
e 2184 2200
e 2184 2201
e 2184 2202
e 2184 2203
e 2184 2204
e 2184 2205
e 2184 2206
e 2184 2207
e 2208 2209
e 2208 2210
e 2208 2211
e 2208 2212
e 2208 2213
e 2208 2214
e 2208 2215
e 2208 2216
e 2208 2217
e 2208 2218
e 2208 2219
e 2208 2220
e 2208 2221
e 2208 2222
e 2208 2223
e 2208 2224
e 2208 2225
e 2208 2226
e 2208 2227
e 2208 2228
e 2208 2229
e 2208 2230
e 2208 2231
e 2208 2232
e 2208 2233
e 2208 2234
e 2208 2235
e 2208 2236
e 2208 2237
e 2208 2238
e 2208 2239
e 2208 2240
e 2208 2241
e 2208 2242
e 2208 2243
e 2208 2244
e 2208 2245
e 2246 2247
e 2246 2248
e 2246 2249
e 2246 2250
e 2246 2251
e 2246 2252
e 2246 2253
e 2246 2254
e 2246 2255
e 2246 2256
e 2246 2257
e 2246 2258
e 2246 2259
e 2246 2260
e 2246 2261
e 2246 2262
e 2246 2263
e 2246 2264
e 2246 2265
e 2246 2266
e 2246 2267
e 2246 2268
e 2246 2269
e 2246 2270
e 2246 2271
e 2272 2273
e 2272 2274
e 2272 2275
e 2272 2276
e 2272 2277
e 2272 2278
e 2272 2279
e 2272 2280
e 2272 2281
e 2272 2282
e 2272 2283
e 2272 2284
e 2272 2285
e 2272 2286
e 2272 2287
e 2272 2288
e 2272 2289
e 2272 2290
e 2272 2291
e 2272 2292
e 2272 2293
e 2272 2294
e 2272 2295
e 2272 2296
e 2272 2297
e 2298 2299
e 2298 2300
e 2298 2301
e 2298 2302
e 2298 2303
e 2298 2304
e 2298 2305
e 2298 2306
e 2298 2307
e 2298 2308
e 2298 2309
e 2298 2310
e 2298 2311
e 2298 2312
e 2298 2313
e 2298 2314
e 2298 2315
e 2298 2316
e 2298 2317
e 2298 2318
e 2298 2319
e 2298 2320
e 2298 2321
e 2298 2322
e 2298 2323
e 2298 2324
e 2298 2325
e 2298 2326
e 2298 2327
e 2298 2328
e 2298 2329
e 2298 2330
e 2298 2331
e 2298 2332
e 2298 2333
e 2298 2334
e 2298 2335
e 2298 2336
e 2337 2338
e 2337 2339
e 2337 2340
e 2337 2341
e 2337 2342
e 2337 2343
e 2337 2344
e 2337 2345
e 2337 2346
e 2337 2347
e 2337 2348
e 2337 2349
e 2337 2350
e 2337 2351
e 2337 2352
e 2337 2353
e 2337 2354
e 2337 2355
e 2337 2356
